33D32945 STP File, STP Format Version 1.0

SECTION Comments
Name "inst10x3_07"
Creator "Kurt Anstreicher & Marcia Fampa"
Problem "Euclidean Steiner Tree Problem"
Remark "Converted automatically"
END

SECTION Graph
Nodes 10
END

SECTION Coordinates
DDD 1 3.60311170919780 5.48512813734601 2.61769569871793 
DDD 2 5.97344847933844 0.49277996596014 5.71057494384665 
DDD 3 7.00857233237331 9.62288258717162 7.50518231944267 
DDD 4 7.39993045378475 4.31873385606973 6.34265956315476 
DDD 5 8.03026340231930 0.83881007001034 9.45462787910387 
DDD 6 9.15942459894122 6.01987423638004 2.53560578732331 
DDD 7 8.73450805540393 5.13400709996277 7.32650649129393 
DDD 8 4.22226586119395 9.61369998856309 0.72059238552009 
DDD 9 5.53407968030386 2.91983921142441 8.57963513084075 
DDD 10 3.35755138686210 6.80203850370507 0.53444421318486 
END

EOF
